
--- Job z_Logic_B_B_BM2.gms Start 06/30/15 12:11:45 24.4.5 r52258 WEX-VS8 x86 32bit/MS Windows
GAMS 24.4.5   Copyright (C) 1987-2015 GAMS Development. All rights reserved
Licensee: Ignacio E. Grossmann                           G150105/0001AO-GEN
          Carnegie Mellon University, Dept. of Chemical Engineering  DC9476
          License for teaching and research at degree granting institutions
--- Starting continued compilation
--- Workfile was generated under GAMS version WIN244-244
--- z_Logic_B_B_BM2.gms(238) 9 Mb
--- Starting execution: elapsed 0:00:00.054
--- z_Logic_B_B_BM2.gms(201) 10 Mb
--- Generating RMIP model bigM
--- z_Logic_B_B_BM2.gms(203) 10 Mb
---   141 rows  73 columns  432 non-zeroes
---   60 discrete-columns
--- Executing CPLEX: elapsed 0:00:00.094

IBM ILOG CPLEX   24.4.5 r52258 Released May 26, 2015 VS8 x86 32bit/MS Windows 
Cplex 12.6.1.0

Reading data...
Starting Cplex...
Space for names approximately 0.00 Mb
Use option 'names no' to turn use of names off
Tried aggregator 1 time.
No LP presolve or aggregator reductions.
Presolve time = 0.00 sec. (0.05 ticks)
Initializing dual steep norms . . .

Iteration log . . .
Iteration:     1   Scaled dual infeas =             0.000000
Iteration:     2   Dual objective     =             5.000000
LP status(1): optimal
Cplex Time: 0.00sec (det. 0.17 ticks)

Optimal solution found.
Objective :           5.000000

--- Restarting execution
--- z_Logic_B_B_BM2.gms(203) 8 Mb
--- Reading solution for model bigM
--- Executing after solve: elapsed 0:00:00.202
--- z_Logic_B_B_BM2.gms(227) 9 Mb
--- Generating RMIP model bigM
--- z_Logic_B_B_BM2.gms(289) 9 Mb
--- LOOPS level2 = 1
---       numm = 1
---   134 rows  73 columns  410 non-zeroes
---   60 discrete-columns
--- Executing CPLEX: elapsed 0:00:00.311

IBM ILOG CPLEX   24.4.5 r52258 Released May 26, 2015 VS8 x86 32bit/MS Windows 
Cplex 12.6.1.0

Reading data...
Starting Cplex...
Space for names approximately 0.00 Mb
Use option 'names no' to turn use of names off
Tried aggregator 1 time.
LP Presolve eliminated 1 rows and 4 columns.
Reduced LP has 133 rows, 69 columns, and 406 nonzeros.
Presolve time = 0.00 sec. (0.07 ticks)
Initializing dual steep norms . . .

Iteration log . . .
Iteration:     1   Scaled dual infeas =             0.000000
Iteration:     2   Dual objective     =             5.000000
LP status(1): optimal
Cplex Time: 0.00sec (det. 0.23 ticks)

Optimal solution found.
Objective :           6.000000

--- Restarting execution
--- z_Logic_B_B_BM2.gms(289) 8 Mb
--- Reading solution for model bigM
--- Executing after solve: elapsed 0:00:00.413
--- z_Logic_B_B_BM2.gms(227) 9 Mb
--- Generating RMIP model bigM
--- z_Logic_B_B_BM2.gms(289) 9 Mb
--- LOOPS level2 = 1
---       numm = 2
---   134 rows  73 columns  410 non-zeroes
---   60 discrete-columns
--- Executing CPLEX: elapsed 0:00:00.504

IBM ILOG CPLEX   24.4.5 r52258 Released May 26, 2015 VS8 x86 32bit/MS Windows 
Cplex 12.6.1.0

Reading data...
Starting Cplex...
Space for names approximately 0.00 Mb
Use option 'names no' to turn use of names off
Tried aggregator 1 time.
LP Presolve eliminated 1 rows and 4 columns.
Reduced LP has 133 rows, 69 columns, and 406 nonzeros.
Presolve time = 0.00 sec. (0.07 ticks)
Initializing dual steep norms . . .

Iteration log . . .
Iteration:     1   Scaled dual infeas =             0.000000
Iteration:     2   Dual objective     =             6.000000
LP status(1): optimal
Cplex Time: 0.00sec (det. 0.23 ticks)

Optimal solution found.
Objective :           6.000000

--- Restarting execution
--- z_Logic_B_B_BM2.gms(289) 8 Mb
--- Reading solution for model bigM
--- Executing after solve: elapsed 0:00:00.609
--- z_Logic_B_B_BM2.gms(227) 9 Mb
--- Generating RMIP model bigM
--- z_Logic_B_B_BM2.gms(289) 9 Mb
--- LOOPS level2 = 1
---       numm = 3
---   136 rows  73 columns  414 non-zeroes
---   60 discrete-columns
--- Executing CPLEX: elapsed 0:00:00.702

IBM ILOG CPLEX   24.4.5 r52258 Released May 26, 2015 VS8 x86 32bit/MS Windows 
Cplex 12.6.1.0

Reading data...
Starting Cplex...
Space for names approximately 0.00 Mb
Use option 'names no' to turn use of names off
Tried aggregator 1 time.
LP Presolve eliminated 1 rows and 4 columns.
Reduced LP has 135 rows, 69 columns, and 410 nonzeros.
Presolve time = 0.00 sec. (0.07 ticks)
Initializing dual steep norms . . .

Iteration log . . .
Iteration:     1   Scaled dual infeas =             0.000000
Iteration:     2   Dual objective     =             5.000000
LP status(1): optimal
Cplex Time: 0.00sec (det. 0.23 ticks)

Optimal solution found.
Objective :           5.000000

--- Restarting execution
--- z_Logic_B_B_BM2.gms(289) 8 Mb
--- Reading solution for model bigM
--- Executing after solve: elapsed 0:00:00.805
--- z_Logic_B_B_BM2.gms(227) 9 Mb
--- Generating RMIP model bigM
--- z_Logic_B_B_BM2.gms(289) 9 Mb
--- LOOPS level2 = 1
---       numm = 4
---   136 rows  73 columns  414 non-zeroes
---   60 discrete-columns
--- Executing CPLEX: elapsed 0:00:00.897

IBM ILOG CPLEX   24.4.5 r52258 Released May 26, 2015 VS8 x86 32bit/MS Windows 
Cplex 12.6.1.0

Reading data...
Starting Cplex...
Space for names approximately 0.00 Mb
Use option 'names no' to turn use of names off
Tried aggregator 1 time.
LP Presolve eliminated 1 rows and 4 columns.
Reduced LP has 135 rows, 69 columns, and 410 nonzeros.
Presolve time = 0.00 sec. (0.07 ticks)
Initializing dual steep norms . . .

Iteration log . . .
Iteration:     1   Scaled dual infeas =             0.000000
Iteration:     2   Dual objective     =             5.000000
LP status(1): optimal
Cplex Time: 0.00sec (det. 0.23 ticks)

Optimal solution found.
Objective :           5.000000

--- Restarting execution
--- z_Logic_B_B_BM2.gms(289) 8 Mb
--- Reading solution for model bigM
--- Executing after solve: elapsed 0:00:01.000
--- z_Logic_B_B_BM2.gms(227) 9 Mb
--- Generating RMIP model bigM
--- z_Logic_B_B_BM2.gms(289) 9 Mb
--- LOOPS level2 = 2
---       numm = 1
---   127 rows  73 columns  388 non-zeroes
---   60 discrete-columns
--- Executing CPLEX: elapsed 0:00:01.220

IBM ILOG CPLEX   24.4.5 r52258 Released May 26, 2015 VS8 x86 32bit/MS Windows 
Cplex 12.6.1.0

Reading data...
Starting Cplex...
Space for names approximately 0.00 Mb
Use option 'names no' to turn use of names off
Tried aggregator 1 time.
LP Presolve eliminated 2 rows and 8 columns.
Reduced LP has 125 rows, 65 columns, and 380 nonzeros.
Presolve time = 0.00 sec. (0.06 ticks)
Initializing dual steep norms . . .

Iteration log . . .
Iteration:     1   Scaled dual infeas =             0.000000
Iteration:     2   Dual objective     =             5.000000
LP status(1): optimal
Cplex Time: 0.00sec (det. 0.22 ticks)

Optimal solution found.
Objective :           6.000000

--- Restarting execution
--- z_Logic_B_B_BM2.gms(289) 8 Mb
--- Reading solution for model bigM
--- Executing after solve: elapsed 0:00:01.323
--- z_Logic_B_B_BM2.gms(227) 9 Mb
--- Generating RMIP model bigM
--- z_Logic_B_B_BM2.gms(289) 9 Mb
--- LOOPS level2 = 2
---       numm = 2
---   127 rows  73 columns  388 non-zeroes
---   60 discrete-columns
--- Executing CPLEX: elapsed 0:00:01.411

IBM ILOG CPLEX   24.4.5 r52258 Released May 26, 2015 VS8 x86 32bit/MS Windows 
Cplex 12.6.1.0

Reading data...
Starting Cplex...
Space for names approximately 0.00 Mb
Use option 'names no' to turn use of names off
Tried aggregator 1 time.
LP Presolve eliminated 2 rows and 8 columns.
Reduced LP has 125 rows, 65 columns, and 380 nonzeros.
Presolve time = 0.00 sec. (0.06 ticks)
Initializing dual steep norms . . .

Iteration log . . .
Iteration:     1   Scaled dual infeas =             0.000000
Iteration:     2   Dual objective     =             5.000000
LP status(1): optimal
Cplex Time: 0.00sec (det. 0.23 ticks)

Optimal solution found.
Objective :           7.000000

--- Restarting execution
--- z_Logic_B_B_BM2.gms(289) 8 Mb
--- Reading solution for model bigM
--- Executing after solve: elapsed 0:00:01.524
--- z_Logic_B_B_BM2.gms(227) 9 Mb
--- Generating RMIP model bigM
--- z_Logic_B_B_BM2.gms(289) 9 Mb
--- LOOPS level2 = 2
---       numm = 3
---   129 rows  73 columns  392 non-zeroes
---   60 discrete-columns
--- Executing CPLEX: elapsed 0:00:01.616

IBM ILOG CPLEX   24.4.5 r52258 Released May 26, 2015 VS8 x86 32bit/MS Windows 
Cplex 12.6.1.0

Reading data...
Starting Cplex...
Space for names approximately 0.00 Mb
Use option 'names no' to turn use of names off
Tried aggregator 1 time.
LP Presolve eliminated 2 rows and 8 columns.
Reduced LP has 127 rows, 65 columns, and 384 nonzeros.
Presolve time = 0.00 sec. (0.06 ticks)
Initializing dual steep norms . . .

Iteration log . . .
Iteration:     1   Scaled dual infeas =             0.000000
Iteration:     2   Dual objective     =             5.000000
LP status(1): optimal
Cplex Time: 0.00sec (det. 0.22 ticks)

Optimal solution found.
Objective :           6.000000

--- Restarting execution
--- z_Logic_B_B_BM2.gms(289) 8 Mb
--- Reading solution for model bigM
--- Executing after solve: elapsed 0:00:01.720
--- z_Logic_B_B_BM2.gms(227) 9 Mb
--- Generating RMIP model bigM
--- z_Logic_B_B_BM2.gms(289) 9 Mb
--- LOOPS level2 = 2
---       numm = 4
---   129 rows  73 columns  392 non-zeroes
---   60 discrete-columns
--- Executing CPLEX: elapsed 0:00:01.810

IBM ILOG CPLEX   24.4.5 r52258 Released May 26, 2015 VS8 x86 32bit/MS Windows 
Cplex 12.6.1.0

Reading data...
Starting Cplex...
Space for names approximately 0.00 Mb
Use option 'names no' to turn use of names off
Tried aggregator 1 time.
LP Presolve eliminated 2 rows and 8 columns.
Reduced LP has 127 rows, 65 columns, and 384 nonzeros.
Presolve time = 0.00 sec. (0.06 ticks)
Initializing dual steep norms . . .

Iteration log . . .
Iteration:     1   Scaled dual infeas =             0.000000
Iteration:     2   Dual objective     =             5.000000
LP status(1): optimal
Cplex Time: 0.00sec (det. 0.22 ticks)

Optimal solution found.
Objective :           6.000000

--- Restarting execution
--- z_Logic_B_B_BM2.gms(289) 8 Mb
--- Reading solution for model bigM
--- Executing after solve: elapsed 0:00:01.919
--- z_Logic_B_B_BM2.gms(227) 9 Mb
--- Generating RMIP model bigM
--- z_Logic_B_B_BM2.gms(289) 9 Mb
--- LOOPS level2 = 2
---       numm = 5
---   127 rows  73 columns  388 non-zeroes
---   60 discrete-columns
--- Executing CPLEX: elapsed 0:00:02.008

IBM ILOG CPLEX   24.4.5 r52258 Released May 26, 2015 VS8 x86 32bit/MS Windows 
Cplex 12.6.1.0

Reading data...
Starting Cplex...
Space for names approximately 0.00 Mb
Use option 'names no' to turn use of names off
Tried aggregator 1 time.
LP Presolve eliminated 2 rows and 8 columns.
Reduced LP has 125 rows, 65 columns, and 380 nonzeros.
Presolve time = 0.00 sec. (0.06 ticks)
Initializing dual steep norms . . .

Iteration log . . .
Iteration:     1   Scaled dual infeas =             0.000000
Iteration:     2   Dual objective     =             5.000000
LP status(1): optimal
Cplex Time: 0.00sec (det. 0.22 ticks)

Optimal solution found.
Objective :           7.000000

--- Restarting execution
--- z_Logic_B_B_BM2.gms(289) 8 Mb
--- Reading solution for model bigM
--- Executing after solve: elapsed 0:00:02.111
--- z_Logic_B_B_BM2.gms(227) 9 Mb
--- Generating RMIP model bigM
--- z_Logic_B_B_BM2.gms(289) 9 Mb
--- LOOPS level2 = 2
---       numm = 6
---   127 rows  73 columns  388 non-zeroes
---   60 discrete-columns
--- Executing CPLEX: elapsed 0:00:02.199

IBM ILOG CPLEX   24.4.5 r52258 Released May 26, 2015 VS8 x86 32bit/MS Windows 
Cplex 12.6.1.0

Reading data...
Starting Cplex...
Space for names approximately 0.00 Mb
Use option 'names no' to turn use of names off
Tried aggregator 1 time.
LP Presolve eliminated 2 rows and 8 columns.
Reduced LP has 125 rows, 65 columns, and 380 nonzeros.
Presolve time = 0.00 sec. (0.06 ticks)
Initializing dual steep norms . . .

Iteration log . . .
Iteration:     1   Scaled dual infeas =             0.000000
Iteration:     2   Dual objective     =             6.000000
LP status(1): optimal
Cplex Time: 0.00sec (det. 0.22 ticks)

Optimal solution found.
Objective :           6.000000

--- Restarting execution
--- z_Logic_B_B_BM2.gms(289) 8 Mb
--- Reading solution for model bigM
--- Executing after solve: elapsed 0:00:02.304
--- z_Logic_B_B_BM2.gms(227) 9 Mb
--- Generating RMIP model bigM
--- z_Logic_B_B_BM2.gms(289) 9 Mb
--- LOOPS level2 = 2
---       numm = 7
---   129 rows  73 columns  392 non-zeroes
---   60 discrete-columns
--- Executing CPLEX: elapsed 0:00:02.396
Sending CtrlC signal

IBM ILOG CPLEX   24.4.5 r52258 Released May 26, 2015 VS8 x86 32bit/MS Windows 
Cplex 12.6.1.0

Reading data...
Starting Cplex...
Space for names approximately 0.00 Mb
Use option 'names no' to turn use of names off
Tried aggregator 1 time.
LP Presolve eliminated 2 rows and 8 columns.
Reduced LP has 127 rows, 65 columns, and 384 nonzeros.
Presolve time = 0.00 sec. (0.06 ticks)
Initializing dual steep norms . . .

Iteration log . . .
Iteration:     1   Scaled dual infeas =             0.000000
Iteration:     2   Dual objective     =             5.000000
LP status(1): optimal
Cplex Time: 0.00sec (det. 0.23 ticks)

Optimal solution found.
Objective :           6.000000

--- Restarting execution
--- z_Logic_B_B_BM2.gms(289) 8 Mb
--- Reading solution for model bigM
--- Executing after solve: elapsed 0:00:02.501
--- z_Logic_B_B_BM2.gms(227) 9 Mb
--- Generating RMIP model bigM
--- z_Logic_B_B_BM2.gms(289) 9 Mb
--- LOOPS level2 = 2
---       numm = 8
---   129 rows  73 columns  392 non-zeroes
---   60 discrete-columns
--- Executing CPLEX: elapsed 0:00:02.595

IBM ILOG CPLEX   24.4.5 r52258 Released May 26, 2015 VS8 x86 32bit/MS Windows 
Cplex 12.6.1.0

Reading data...
Starting Cplex...
Space for names approximately 0.00 Mb
Use option 'names no' to turn use of names off
Tried aggregator 1 time.
LP Presolve eliminated 2 rows and 8 columns.
Reduced LP has 127 rows, 65 columns, and 384 nonzeros.
Presolve time = 0.00 sec. (0.06 ticks)
Initializing dual steep norms . . .

Iteration log . . .
Iteration:     1   Scaled dual infeas =             0.000000
Iteration:     2   Dual objective     =             5.000000
LP status(1): optimal
Cplex Time: 0.00sec (det. 0.23 ticks)

Optimal solution found.
Objective :           6.000000

--- Restarting execution
--- z_Logic_B_B_BM2.gms(289) 8 Mb
--- Reading solution for model bigM
--- Executing after solve: elapsed 0:00:02.711
--- z_Logic_B_B_BM2.gms(227) 9 Mb
--- Generating RMIP model bigM
--- z_Logic_B_B_BM2.gms(289) 9 Mb
--- LOOPS level2 = 2
---       numm = 9
---   129 rows  73 columns  392 non-zeroes
---   60 discrete-columns
--- Executing CPLEX: elapsed 0:00:02.803

IBM ILOG CPLEX   24.4.5 r52258 Released May 26, 2015 VS8 x86 32bit/MS Windows 
Cplex 12.6.1.0

Reading data...
Starting Cplex...
Space for names approximately 0.00 Mb
Use option 'names no' to turn use of names off
Tried aggregator 1 time.
LP Presolve eliminated 2 rows and 8 columns.
Reduced LP has 127 rows, 65 columns, and 384 nonzeros.
Presolve time = 0.00 sec. (0.06 ticks)
Initializing dual steep norms . . .

Iteration log . . .
Iteration:     1   Scaled dual infeas =             0.000000
Iteration:     2   Dual objective     =             5.000000
LP status(1): optimal
Cplex Time: 0.00sec (det. 0.22 ticks)

Optimal solution found.
Objective :           6.000000

Sending CtrlC signal
--- Restarting execution
--- z_Logic_B_B_BM2.gms(289) 8 Mb
--- Reading solution for model bigM
--- Executing after solve: elapsed 0:00:02.908
--- z_Logic_B_B_BM2.gms(227) 9 Mb
*** Error at line 289: Execution halted: Triggered by pending CtrlC event
--- z_Logic_B_B_BM2.gms(227) 9 Mb 1 Error
*** Status: Execution error(s)
--- Job z_Logic_B_B_BM2.gms Stop 06/30/15 12:11:48 elapsed 0:00:02.912
Exit code = 3
